(set-logic QF_UF)
(declare-fun A0 () Bool)
(declare-fun A2 () Bool)
(declare-fun A3 () Bool)
(declare-fun A4 () Bool)
(declare-fun A5 () Bool)
(declare-fun A6 () Bool)
(declare-fun A7 () Bool)
(declare-fun A8 () Bool)
(declare-fun A9 () Bool)
(declare-fun A10 () Bool)
(declare-fun A11 () Bool)
(declare-fun A12 () Bool)
(declare-fun A13 () Bool)
(declare-fun A14 () Bool)
(declare-fun A15 () Bool)
(declare-fun A16 () Bool)
(declare-fun A19 () Bool)
(declare-fun A20 () Bool)
(declare-fun A21 () Bool)
(declare-fun A22 () Bool)
(declare-fun A23 () Bool)
(declare-fun A24 () Bool)
(declare-fun A25 () Bool)
(declare-fun A26 () Bool)
(declare-fun A27 () Bool)
(declare-fun A28 () Bool)
(declare-fun A29 () Bool)
(assert (let ((.def_0 (or A16 A4))) (let ((.def_1 (not A3))) (let ((.def_2 (and A29 .def_1))) (let ((.def_3 (and .def_2 .def_0))) (let ((.def_4 (not A28))) (let ((.def_5 (not A4))) (let ((.def_6 (or .def_5 .def_4))) (let ((.def_7 (not .def_6))) (let ((.def_8 (not A16))) (let ((.def_9 (and .def_8 A10))) (let ((.def_10 (not .def_9))) (let ((.def_11 (and .def_10 .def_7))) (let ((.def_12 (not .def_11))) (let ((.def_13 (= .def_12 .def_3))) (let ((.def_14 (or A25 A26))) (let ((.def_15 (not .def_14))) (let ((.def_16 (not A5))) (let ((.def_17 (not A15))) (let ((.def_18 (or .def_17 .def_16))) (let ((.def_19 (or .def_18 .def_15))) (let ((.def_20 (not .def_19))) (let ((.def_21 (not A21))) (let ((.def_22 (or .def_21 A19))) (let ((.def_23 (not A25))) (let ((.def_24 (= .def_23 A11))) (let ((.def_25 (not .def_24))) (let ((.def_26 (and .def_25 .def_22))) (let ((.def_27 (not .def_26))) (let ((.def_28 (and .def_27 .def_20))) (let ((.def_29 (not .def_28))) (let ((.def_30 (or .def_29 .def_13))) (let ((.def_31 (not .def_30))) (let ((.def_32 (not A20))) (let ((.def_33 (or A8 .def_32))) (let ((.def_34 (not .def_33))) (let ((.def_35 (not A6))) (let ((.def_36 (and .def_35 A8))) (let ((.def_37 (not .def_36))) (let ((.def_38 (or .def_37 .def_34))) (let ((.def_39 (not .def_38))) (let ((.def_40 (not A12))) (let ((.def_41 (and .def_40 A15))) (let ((.def_42 (not .def_41))) (let ((.def_43 (not A9))) (let ((.def_44 (and .def_16 .def_43))) (let ((.def_45 (not .def_44))) (let ((.def_46 (and .def_45 .def_42))) (let ((.def_47 (and .def_46 .def_39))) (let ((.def_48 (not .def_47))) (let ((.def_49 (not A2))) (let ((.def_50 (or .def_49 .def_40))) (let ((.def_51 (and A13 A5))) (let ((.def_52 (or .def_51 .def_50))) (let ((.def_53 (not .def_52))) (let ((.def_54 (not A23))) (let ((.def_55 (not A13))) (let ((.def_56 (or .def_55 .def_54))) (let ((.def_57 (or .def_1 A21))) (let ((.def_58 (not .def_57))) (let ((.def_59 (and .def_58 .def_56))) (let ((.def_60 (or .def_59 .def_53))) (let ((.def_61 (not .def_60))) (let ((.def_62 (or .def_61 .def_48))) (let ((.def_63 (and .def_62 .def_31))) (let ((.def_64 (or A25 .def_5))) (let ((.def_65 (not A27))) (let ((.def_66 (or A4 .def_65))) (let ((.def_67 (not .def_66))) (let ((.def_68 (= .def_67 .def_64))) (let ((.def_69 (or A21 A22))) (let ((.def_70 (not .def_69))) (let ((.def_71 (and A28 .def_32))) (let ((.def_72 (not .def_71))) (let ((.def_73 (and .def_72 .def_70))) (let ((.def_74 (or .def_73 .def_68))) (let ((.def_75 (not .def_74))) (let ((.def_76 (= .def_23 A2))) (let ((.def_77 (not .def_76))) (let ((.def_78 (not A22))) (let ((.def_79 (or .def_78 A26))) (let ((.def_80 (and .def_79 .def_77))) (let ((.def_81 (or .def_35 A6))) (let ((.def_82 (not A24))) (let ((.def_83 (or .def_82 A14))) (let ((.def_84 (or .def_83 .def_81))) (let ((.def_85 (not .def_84))) (let ((.def_86 (= .def_85 .def_80))) (let ((.def_87 (not .def_86))) (let ((.def_88 (or .def_87 .def_75))) (let ((.def_89 (not A0))) (let ((.def_90 (and .def_5 .def_89))) (let ((.def_91 (not .def_90))) (let ((.def_92 (not A10))) (let ((.def_93 (= .def_92 A3))) (let ((.def_94 (and .def_93 .def_91))) (let ((.def_95 (or A12 A0))) (let ((.def_96 (not .def_95))) (let ((.def_97 (and .def_92 .def_8))) (let ((.def_98 (not .def_97))) (let ((.def_99 (= .def_98 .def_96))) (let ((.def_100 (not .def_99))) (let ((.def_101 (= .def_100 .def_94))) (let ((.def_102 (and A27 .def_1))) (let ((.def_103 (not .def_102))) (let ((.def_104 (or .def_43 A19))) (let ((.def_105 (not .def_104))) (let ((.def_106 (and .def_105 .def_103))) (let ((.def_107 (not A11))) (let ((.def_108 (and .def_107 .def_23))) (let ((.def_109 (and .def_82 A7))) (let ((.def_110 (or .def_109 .def_108))) (let ((.def_111 (and .def_110 .def_106))) (let ((.def_112 (not .def_111))) (let ((.def_113 (or .def_112 .def_101))) (let ((.def_114 (and .def_113 .def_88))) (let ((.def_115 (not .def_114))) (let ((.def_116 (and .def_115 .def_63))) (let ((.def_117 (not .def_116))) .def_117)))))))))))))))))))))))))))))))))))))))))))))))))))))))))))))))))))))))))))))))))))))))))))))))))))))))))))))))))))))))
(check-sat)
